Route #1: 1 13 6 2 7 23 33 32 1
Route #2: 1 19 15 18 42 48 29 25 30 8 1
Route #3: 1 17 11 34 22 31 10 1
Route #4: 1 3 47 14 5 43 12 21 27 35 1
Route #5: 1 37 38 39 20 26 4 45 1
Route #6: 1 46 28 16 9 40 41 1
Route #7: 1 44 24 36 1
cost 1318.1811866867072